NAME: ACTUAL_TOURS/amz1535
TYPE: TOUR
COMMENT: RouteID_a592a1d4-2e4c-4c89-b92a-75f07f9c26f4
DIMENSION: 146
TOUR_SECTION
88
77
22
33
16
4
48
72
80
41
133
40
15
73
70
98
123
138
101
50
51
139
18
90
34
26
126
116
8
66
31
52
12
56
135
89
32
61
109
110
99
95
130
104
59
63
44
122
45
142
128
91
10
2
79
23
74
35
111
125
93
6
42
65
17
30
57
87
37
58
5
9
107
84
36
55
20
29
132
97
124
46
28
137
21
76
54
105
27
134
81
108
146
75
117
7
119
60
67
62
25
82
143
39
115
136
127
49
100
106
120
38
129
47
68
1
64
83
14
121
43
13
53
113
19
24
94
102
144
112
141
118
131
85
140
69
114
145
78
71
96
3
86
92
103
11
-1
EOF
